100
128
28
8
44
3
12
43
43
44
9
63
14
18
64
39
51
63
33
54
17
9
14
43
31
19
27
10
40
42
4
4
24
13
16
23
16
42
4
26
24
15
15
28
21
35
5
11
12
15
12
5
4
9
5
40
25
8
3
21
2
18
16
45
53
48
19
55
61
34
52
40
13
38
44
55
17
41
32
58
36
44
26
25
18
61
62
48
57
23
29
24
9
41
37
40
26
64
24
49
46
31